language ESSENCE' 1.0

letting jobs = 102
letting horizon = 825
letting resourcesRenew = 2
letting resourcesNonrenew = 2
letting resourceLimits = [20, 20, 456, 466]
letting successors = [[2, 3, 4, 5, 6, 8, 9, 10, 14, 15, 17, 22], [21, 18, 16, 11, 7], [20, 19, 18, 16, 13, 7], [35, 24, 23, 20, 18, 16], [29, 26, 7], [29, 28, 27, 19, 18, 12], [28, 27, 23, 12], [35, 31, 29, 28, 27, 18], [35, 31, 27, 24, 18], [43, 40, 38, 34, 31, 30, 28, 27, 26], [40, 38, 28, 26, 20], [38, 35, 31, 30, 25, 24], [40, 38, 36, 34, 32, 31, 30, 28], [31, 30, 29, 28, 25], [38, 31, 29, 27, 26], [46, 38, 34, 31, 28, 27], [43, 40, 38, 34, 33, 26], [40, 38, 30, 25], [40, 38, 36, 35, 34, 31], [46, 43, 34, 31, 29], [46, 38, 33, 32, 28], [46, 40, 38, 33, 28], [50, 44, 40, 36, 31], [43, 34, 33, 32], [46, 43, 41, 37, 36, 34], [46, 45, 37, 36, 35], [44, 36, 32], [45, 44, 41, 39, 37], [51, 50, 48, 45, 44, 41], [47, 46, 45, 44, 39], [45, 33], [51, 50, 49, 45, 41], [51, 49, 41, 39], [47, 44, 39], [51, 44, 39], [51, 49, 39], [55, 52, 51, 48, 47, 42], [50, 49, 47, 42], [69, 55, 52, 48, 42], [69, 54, 49, 48, 45], [55, 52, 47, 42], [62, 61, 60, 59, 57, 56, 54, 53], [69, 62, 61, 60, 59, 57, 56, 53], [61, 60, 56, 52, 49], [64, 62, 61, 57, 55, 52], [62, 60, 57, 51], [72, 69, 68, 67, 66, 64, 61, 60, 59, 54], [72, 68, 67, 66, 61, 60, 59, 53], [72, 67, 62, 59, 58, 57], [64, 62, 55, 52], [72, 71, 67, 66, 64, 59, 58], [71, 67, 66, 59, 58], [81, 75, 73, 63, 58], [88, 83, 81, 78, 76, 74, 73, 70], [83, 76, 74, 71, 66], [83, 72, 70, 67, 64], [83, 75, 68, 66], [88, 83, 78, 76, 74, 70], [83, 73, 70, 65], [81, 76, 63], [88, 83, 74, 73, 70], [77, 63], [88, 84, 83, 74, 71], [101, 88, 87, 82, 81, 80, 79, 78, 77], [101, 88, 87, 84, 80, 77, 74], [88, 84, 81, 79, 70], [101, 87, 82, 81, 79, 77, 75], [88, 86, 82, 81, 73], [101, 87, 81, 74], [101, 100, 97, 96, 95, 87, 85, 80, 77], [101, 98, 97, 95, 87, 86, 82, 80], [101, 99, 97, 94, 88, 81, 79], [101, 100, 98, 97, 96, 95, 94, 90, 87, 85, 84], [100, 99, 98, 97, 86, 82, 79], [98, 97, 96, 95, 94, 93, 91, 90, 85], [101, 100, 97, 90, 86, 84], [99, 98, 93, 92, 91, 86], [100, 97, 95, 93, 90, 85], [96, 95, 91, 85], [99, 94, 93, 91, 90], [100, 93, 91, 90, 89], [96, 90, 85], [96, 95, 92, 90], [93, 91, 89], [92, 89], [94, 89], [99, 89], [98], [102], [102], [102], [102], [102], [102], [102], [102], [102], [102], [102], [102], [102], []]
letting durations = [[0], [1, 7, 9], [4, 7, 10], [4, 5, 6], [8, 10, 10], [3, 4, 7], [4, 4, 8], [4, 9, 10], [1, 2, 7], [5, 7, 10], [4, 8, 9], [7, 8, 10], [6, 7, 10], [5, 7, 10], [4, 6, 9], [2, 3, 10], [2, 4, 10], [5, 5, 7], [4, 8, 9], [4, 6, 10], [4, 7, 8], [1, 3, 9], [4, 5, 10], [1, 2, 4], [1, 9, 10], [1, 4, 10], [1, 4, 7], [6, 6, 9], [3, 8, 9], [5, 9, 9], [1, 9, 10], [4, 5, 7], [6, 8, 9], [4, 8, 9], [1, 7, 8], [2, 4, 7], [5, 5, 7], [1, 4, 8], [1, 4, 9], [2, 4, 8], [6, 7, 8], [5, 7, 9], [1, 3, 7], [2, 3, 7], [1, 2, 5], [1, 5, 6], [1, 2, 8], [8, 9, 10], [2, 4, 6], [2, 5, 6], [1, 2, 10], [2, 5, 8], [2, 7, 9], [2, 4, 5], [3, 7, 10], [4, 6, 7], [6, 8, 10], [1, 9, 10], [7, 9, 10], [2, 7, 9], [2, 3, 10], [1, 2, 8], [3, 6, 10], [1, 6, 6], [4, 6, 10], [2, 7, 7], [2, 3, 9], [2, 3, 5], [3, 6, 8], [4, 4, 5], [1, 5, 10], [6, 8, 10], [6, 9, 10], [2, 5, 7], [4, 5, 10], [5, 6, 7], [1, 5, 9], [1, 3, 7], [2, 8, 9], [1, 3, 7], [1, 3, 6], [1, 4, 10], [5, 7, 7], [3, 6, 7], [2, 3, 7], [3, 5, 9], [2, 2, 3], [4, 7, 8], [6, 7, 9], [6, 7, 9], [4, 7, 9], [4, 4, 5], [2, 9, 9], [5, 7, 8], [8, 9, 9], [4, 9, 10], [6, 7, 8], [1, 2, 5], [4, 6, 7], [1, 2, 10], [3, 5, 8], [0]]
letting resourceUsage = [[[0, 0, 0, 0]], [[3, 0, 2, 10], [2, 0, 2, 9], [2, 0, 2, 8]], [[0, 3, 7, 8], [4, 0, 7, 6], [0, 2, 7, 4]], [[4, 0, 8, 7], [4, 0, 7, 6], [0, 2, 7, 5]], [[2, 0, 6, 8], [0, 3, 5, 8], [2, 0, 5, 8]], [[2, 0, 6, 8], [2, 0, 6, 5], [0, 4, 5, 4]], [[3, 0, 7, 4], [0, 4, 6, 3], [2, 0, 6, 2]], [[0, 4, 10, 7], [0, 3, 9, 5], [0, 2, 8, 4]], [[1, 0, 2, 8], [1, 0, 2, 7], [1, 0, 2, 6]], [[0, 1, 8, 8], [0, 1, 3, 8], [2, 0, 3, 7]], [[0, 5, 7, 5], [0, 4, 6, 2], [3, 0, 4, 1]], [[0, 5, 4, 10], [0, 4, 3, 9], [0, 3, 3, 8]], [[0, 4, 8, 2], [0, 3, 6, 1], [1, 0, 6, 1]], [[0, 3, 4, 3], [3, 0, 3, 1], [2, 0, 3, 1]], [[5, 0, 5, 2], [0, 1, 3, 1], [3, 0, 1, 1]], [[4, 0, 3, 9], [0, 2, 1, 7], [2, 0, 1, 5]], [[5, 0, 7, 6], [0, 4, 4, 4], [0, 3, 3, 4]], [[0, 4, 9, 7], [3, 0, 9, 6], [2, 0, 9, 6]], [[0, 5, 2, 7], [0, 4, 1, 4], [0, 3, 1, 3]], [[0, 4, 8, 6], [3, 0, 3, 5], [0, 1, 3, 5]], [[3, 0, 7, 2], [0, 2, 6, 2], [0, 2, 5, 1]], [[5, 0, 6, 4], [0, 3, 5, 2], [5, 0, 3, 2]], [[4, 0, 8, 4], [3, 0, 6, 3], [0, 3, 6, 3]], [[3, 0, 6, 1], [2, 0, 6, 1], [1, 0, 4, 1]], [[2, 0, 1, 3], [0, 4, 1, 3], [1, 0, 1, 3]], [[4, 0, 9, 6], [4, 0, 4, 4], [0, 2, 3, 3]], [[0, 2, 2, 7], [0, 1, 2, 5], [2, 0, 2, 4]], [[0, 5, 9, 7], [2, 0, 8, 5], [0, 2, 8, 5]], [[0, 5, 2, 5], [3, 0, 1, 3], [0, 5, 1, 2]], [[0, 3, 4, 4], [1, 0, 4, 3], [0, 3, 4, 1]], [[2, 0, 9, 7], [0, 2, 9, 4], [0, 2, 9, 2]], [[0, 1, 10, 5], [0, 1, 9, 3], [0, 1, 8, 2]], [[4, 0, 8, 1], [0, 3, 5, 1], [2, 0, 3, 1]], [[0, 4, 8, 9], [0, 2, 8, 9], [0, 2, 5, 8]], [[4, 0, 3, 3], [4, 0, 3, 2], [4, 0, 2, 2]], [[0, 3, 1, 3], [1, 0, 1, 2], [1, 0, 1, 1]], [[0, 2, 9, 4], [2, 0, 9, 4], [0, 2, 9, 3]], [[0, 4, 3, 2], [0, 3, 3, 2], [3, 0, 3, 1]], [[5, 0, 6, 8], [0, 4, 6, 5], [0, 4, 6, 4]], [[0, 3, 7, 5], [0, 2, 5, 4], [2, 0, 3, 2]], [[0, 2, 8, 3], [3, 0, 8, 2], [3, 0, 7, 2]], [[5, 0, 5, 7], [0, 3, 4, 5], [0, 3, 4, 4]], [[5, 0, 3, 10], [0, 1, 2, 9], [4, 0, 2, 8]], [[0, 5, 6, 9], [2, 0, 3, 6], [0, 3, 2, 5]], [[2, 0, 10, 8], [2, 0, 5, 8], [0, 1, 4, 7]], [[2, 0, 7, 2], [1, 0, 6, 2], [1, 0, 5, 2]], [[1, 0, 9, 6], [1, 0, 7, 6], [0, 2, 5, 6]], [[0, 4, 8, 1], [0, 2, 8, 1], [4, 0, 7, 1]], [[4, 0, 6, 7], [3, 0, 5, 7], [0, 1, 5, 2]], [[0, 3, 3, 7], [0, 3, 2, 5], [0, 3, 2, 4]], [[0, 4, 5, 3], [0, 4, 4, 2], [0, 4, 3, 2]], [[0, 1, 6, 4], [2, 0, 5, 2], [0, 1, 4, 2]], [[0, 5, 7, 1], [0, 4, 7, 1], [2, 0, 3, 1]], [[0, 4, 9, 10], [0, 3, 9, 4], [0, 1, 8, 2]], [[0, 4, 7, 9], [4, 0, 3, 9], [0, 2, 2, 9]], [[0, 4, 6, 4], [3, 0, 6, 3], [1, 0, 5, 3]], [[4, 0, 6, 5], [0, 3, 5, 5], [0, 1, 3, 4]], [[0, 3, 4, 7], [1, 0, 2, 7], [1, 0, 2, 5]], [[0, 5, 6, 6], [2, 0, 3, 6], [2, 0, 2, 4]], [[0, 4, 4, 10], [3, 0, 3, 7], [2, 0, 1, 6]], [[0, 2, 5, 6], [2, 0, 5, 6], [0, 1, 5, 5]], [[3, 0, 5, 6], [2, 0, 5, 4], [1, 0, 4, 2]], [[5, 0, 7, 6], [0, 3, 5, 5], [3, 0, 1, 5]], [[0, 4, 7, 7], [3, 0, 7, 4], [0, 2, 7, 3]], [[3, 0, 3, 8], [3, 0, 2, 7], [0, 1, 2, 3]], [[3, 0, 7, 7], [0, 4, 7, 6], [3, 0, 7, 2]], [[4, 0, 3, 8], [4, 0, 3, 7], [0, 3, 1, 7]], [[4, 0, 8, 5], [0, 2, 6, 4], [3, 0, 6, 3]], [[0, 5, 7, 7], [2, 0, 6, 3], [2, 0, 5, 3]], [[0, 2, 8, 10], [2, 0, 7, 9], [2, 0, 6, 9]], [[5, 0, 6, 7], [4, 0, 6, 6], [3, 0, 6, 5]], [[0, 3, 4, 3], [0, 3, 3, 2], [3, 0, 3, 2]], [[5, 0, 7, 10], [0, 3, 6, 9], [0, 3, 3, 8]], [[5, 0, 7, 8], [0, 4, 6, 5], [5, 0, 6, 2]], [[5, 0, 2, 6], [0, 1, 1, 6], [1, 0, 1, 6]], [[0, 4, 8, 6], [1, 0, 4, 4], [1, 0, 4, 3]], [[0, 2, 4, 9], [2, 0, 3, 9], [0, 2, 2, 7]], [[0, 3, 2, 8], [0, 2, 2, 8], [2, 0, 1, 8]], [[0, 4, 7, 8], [0, 4, 3, 6], [2, 0, 2, 6]], [[4, 0, 9, 7], [0, 2, 4, 4], [0, 2, 3, 4]], [[0, 5, 7, 7], [0, 2, 7, 5], [0, 1, 7, 4]], [[0, 4, 7, 6], [0, 3, 7, 4], [3, 0, 7, 2]], [[0, 1, 6, 6], [4, 0, 6, 6], [0, 1, 6, 2]], [[0, 4, 8, 9], [0, 4, 8, 7], [4, 0, 8, 5]], [[0, 4, 9, 7], [0, 4, 7, 3], [0, 3, 6, 2]], [[5, 0, 8, 6], [5, 0, 7, 6], [0, 1, 7, 5]], [[2, 0, 7, 6], [0, 4, 5, 6], [1, 0, 4, 5]], [[1, 0, 2, 9], [0, 2, 2, 9], [1, 0, 2, 8]], [[0, 4, 8, 8], [0, 4, 5, 7], [0, 4, 2, 6]], [[4, 0, 5, 10], [4, 0, 3, 9], [0, 2, 3, 9]], [[4, 0, 6, 7], [3, 0, 5, 7], [0, 4, 4, 6]], [[4, 0, 9, 9], [0, 3, 7, 8], [4, 0, 6, 8]], [[0, 2, 4, 7], [0, 2, 3, 6], [2, 0, 3, 6]], [[3, 0, 5, 4], [2, 0, 4, 3], [1, 0, 3, 2]], [[0, 3, 3, 10], [4, 0, 2, 9], [0, 1, 2, 9]], [[3, 0, 8, 5], [0, 1, 7, 4], [0, 1, 6, 4]], [[0, 4, 2, 10], [0, 4, 1, 11], [0, 4, 1, 10]], [[0, 5, 3, 5], [2, 0, 2, 3], [1, 0, 2, 2]], [[0, 3, 5, 6], [1, 0, 4, 4], [0, 2, 3, 1]], [[0, 3, 7, 7], [4, 0, 6, 5], [0, 2, 4, 3]], [[3, 0, 8, 8], [0, 4, 7, 5], [1, 0, 7, 4]], [[0, 0, 0, 0]]]
